
(set-logic HORN)
(declare-fun Z_1895 () Int)
(declare-fun S_418 (Int) Int)
(declare-fun diseqInt (Int Int) Bool)
(declare-fun unS_625 (Int Int) Bool)
(declare-fun isZ_385 (Int) Bool)
(declare-fun isS_385 (Int) Bool)
(assert (forall ((x_53773 Int))
	(unS_625 x_53773 (S_418 x_53773))))
(assert (isZ_385 Z_1895))
(assert (forall ((x_53775 Int))
	(isS_385 (S_418 x_53775))))
(assert (forall ((x_53776 Int))
	(diseqInt Z_1895 (S_418 x_53776))))
(assert (forall ((x_53777 Int))
	(diseqInt (S_418 x_53777) Z_1895)))
(assert (forall ((x_53778 Int) (x_53779 Int))
	(=> (diseqInt x_53778 x_53779) (diseqInt (S_418 x_53778) (S_418 x_53779)))))
(declare-fun add_336 (Int Int Int) Bool)
(declare-fun minus_333 (Int Int Int) Bool)
(declare-fun le_312 (Int Int) Bool)
(declare-fun ge_312 (Int Int) Bool)
(declare-fun lt_332 (Int Int) Bool)
(declare-fun gt_315 (Int Int) Bool)
(declare-fun mult_312 (Int Int Int) Bool)
(declare-fun div_312 (Int Int Int) Bool)
(declare-fun mod_314 (Int Int Int) Bool)
(assert (forall ((y_2130 Int))
	(add_336 y_2130 Z_1895 y_2130)))
(assert (forall ((x_53771 Int) (y_2130 Int) (r_383 Int))
	(=> (add_336 r_383 x_53771 y_2130) (add_336 (S_418 r_383) (S_418 x_53771) y_2130))))
(assert (forall ((y_2130 Int))
	(minus_333 Z_1895 Z_1895 y_2130)))
(assert (forall ((x_53771 Int) (y_2130 Int) (r_383 Int))
	(=> (minus_333 r_383 x_53771 y_2130) (minus_333 (S_418 r_383) (S_418 x_53771) y_2130))))
(assert (forall ((y_2130 Int))
	(le_312 Z_1895 y_2130)))
(assert (forall ((x_53771 Int) (y_2130 Int))
	(=> (le_312 x_53771 y_2130) (le_312 (S_418 x_53771) (S_418 y_2130)))))
(assert (forall ((y_2130 Int))
	(ge_312 y_2130 Z_1895)))
(assert (forall ((x_53771 Int) (y_2130 Int))
	(=> (ge_312 x_53771 y_2130) (ge_312 (S_418 x_53771) (S_418 y_2130)))))
(assert (forall ((y_2130 Int))
	(lt_332 Z_1895 (S_418 y_2130))))
(assert (forall ((x_53771 Int) (y_2130 Int))
	(=> (lt_332 x_53771 y_2130) (lt_332 (S_418 x_53771) (S_418 y_2130)))))
(assert (forall ((y_2130 Int))
	(gt_315 (S_418 y_2130) Z_1895)))
(assert (forall ((x_53771 Int) (y_2130 Int))
	(=> (gt_315 x_53771 y_2130) (gt_315 (S_418 x_53771) (S_418 y_2130)))))
(assert (forall ((y_2130 Int))
	(mult_312 Z_1895 Z_1895 y_2130)))
(assert (forall ((x_53771 Int) (y_2130 Int) (r_383 Int) (z_1896 Int))
	(=> (and (mult_312 r_383 x_53771 y_2130) (add_336 z_1896 r_383 y_2130)) (mult_312 z_1896 (S_418 x_53771) y_2130))))
(assert (forall ((x_53771 Int) (y_2130 Int))
	(=> (lt_332 x_53771 y_2130) (div_312 Z_1895 x_53771 y_2130))))
(assert (forall ((x_53771 Int) (y_2130 Int) (r_383 Int) (z_1896 Int))
	(=> (and (ge_312 x_53771 y_2130) (minus_333 z_1896 x_53771 y_2130) (div_312 r_383 z_1896 y_2130)) (div_312 (S_418 r_383) x_53771 y_2130))))
(assert (forall ((x_53771 Int) (y_2130 Int))
	(=> (lt_332 x_53771 y_2130) (mod_314 x_53771 x_53771 y_2130))))
(assert (forall ((x_53771 Int) (y_2130 Int) (r_383 Int) (z_1896 Int))
	(=> (and (ge_312 x_53771 y_2130) (minus_333 z_1896 x_53771 y_2130) (mod_314 r_383 z_1896 y_2130)) (mod_314 r_383 x_53771 y_2130))))
(declare-datatypes ((list_218 0)) (((nil_247) (cons_218 (head_436 Int) (tail_436 list_218)))))
(declare-fun diseqlist_218 (list_218 list_218) Bool)
(declare-fun head_438 (Int list_218) Bool)
(declare-fun tail_438 (list_218 list_218) Bool)
(declare-fun isnil_247 (list_218) Bool)
(declare-fun iscons_218 (list_218) Bool)
(assert (forall ((x_53781 Int) (x_53782 list_218))
	(head_438 x_53781 (cons_218 x_53781 x_53782))))
(assert (forall ((x_53781 Int) (x_53782 list_218))
	(tail_438 x_53782 (cons_218 x_53781 x_53782))))
(assert (isnil_247 nil_247))
(assert (forall ((x_53784 Int) (x_53785 list_218))
	(iscons_218 (cons_218 x_53784 x_53785))))
(assert (forall ((x_53786 Int) (x_53787 list_218))
	(diseqlist_218 nil_247 (cons_218 x_53786 x_53787))))
(assert (forall ((x_53788 Int) (x_53789 list_218))
	(diseqlist_218 (cons_218 x_53788 x_53789) nil_247)))
(assert (forall ((x_53790 Int) (x_53791 list_218) (x_53792 Int) (x_53793 list_218))
	(=> (diseqInt x_53790 x_53792) (diseqlist_218 (cons_218 x_53790 x_53791) (cons_218 x_53792 x_53793)))))
(assert (forall ((x_53790 Int) (x_53791 list_218) (x_53792 Int) (x_53793 list_218))
	(=> (diseqlist_218 x_53791 x_53793) (diseqlist_218 (cons_218 x_53790 x_53791) (cons_218 x_53792 x_53793)))))
(declare-datatypes ((Heap_11 0)) (((Node_16 (projNode_96 Heap_11) (projNode_97 Int) (projNode_98 Heap_11)) (Nil_248))))
(declare-fun diseqHeap_11 (Heap_11 Heap_11) Bool)
(declare-fun projNode_99 (Heap_11 Heap_11) Bool)
(declare-fun projNode_100 (Int Heap_11) Bool)
(declare-fun projNode_101 (Heap_11 Heap_11) Bool)
(declare-fun isNode_16 (Heap_11) Bool)
(declare-fun isNil_248 (Heap_11) Bool)
(assert (forall ((x_53794 Heap_11) (x_53795 Int) (x_53796 Heap_11))
	(projNode_99 x_53794 (Node_16 x_53794 x_53795 x_53796))))
(assert (forall ((x_53794 Heap_11) (x_53795 Int) (x_53796 Heap_11))
	(projNode_100 x_53795 (Node_16 x_53794 x_53795 x_53796))))
(assert (forall ((x_53794 Heap_11) (x_53795 Int) (x_53796 Heap_11))
	(projNode_101 x_53796 (Node_16 x_53794 x_53795 x_53796))))
(assert (forall ((x_53799 Heap_11) (x_53800 Int) (x_53801 Heap_11))
	(isNode_16 (Node_16 x_53799 x_53800 x_53801))))
(assert (isNil_248 Nil_248))
(assert (forall ((x_53802 Heap_11) (x_53803 Int) (x_53804 Heap_11))
	(diseqHeap_11 (Node_16 x_53802 x_53803 x_53804) Nil_248)))
(assert (forall ((x_53805 Heap_11) (x_53806 Int) (x_53807 Heap_11))
	(diseqHeap_11 Nil_248 (Node_16 x_53805 x_53806 x_53807))))
(assert (forall ((x_53808 Heap_11) (x_53809 Int) (x_53810 Heap_11) (x_53811 Heap_11) (x_53812 Int) (x_53813 Heap_11))
	(=> (diseqHeap_11 x_53808 x_53811) (diseqHeap_11 (Node_16 x_53808 x_53809 x_53810) (Node_16 x_53811 x_53812 x_53813)))))
(assert (forall ((x_53808 Heap_11) (x_53809 Int) (x_53810 Heap_11) (x_53811 Heap_11) (x_53812 Int) (x_53813 Heap_11))
	(=> (diseqInt x_53809 x_53812) (diseqHeap_11 (Node_16 x_53808 x_53809 x_53810) (Node_16 x_53811 x_53812 x_53813)))))
(assert (forall ((x_53808 Heap_11) (x_53809 Int) (x_53810 Heap_11) (x_53811 Heap_11) (x_53812 Int) (x_53813 Heap_11))
	(=> (diseqHeap_11 x_53810 x_53813) (diseqHeap_11 (Node_16 x_53808 x_53809 x_53810) (Node_16 x_53811 x_53812 x_53813)))))
(declare-datatypes ((list_219 0)) (((nil_249) (cons_219 (head_437 Heap_11) (tail_437 list_219)))))
(declare-fun diseqlist_219 (list_219 list_219) Bool)
(declare-fun head_439 (Heap_11 list_219) Bool)
(declare-fun tail_439 (list_219 list_219) Bool)
(declare-fun isnil_249 (list_219) Bool)
(declare-fun iscons_219 (list_219) Bool)
(assert (forall ((x_53815 Heap_11) (x_53816 list_219))
	(head_439 x_53815 (cons_219 x_53815 x_53816))))
(assert (forall ((x_53815 Heap_11) (x_53816 list_219))
	(tail_439 x_53816 (cons_219 x_53815 x_53816))))
(assert (isnil_249 nil_249))
(assert (forall ((x_53818 Heap_11) (x_53819 list_219))
	(iscons_219 (cons_219 x_53818 x_53819))))
(assert (forall ((x_53820 Heap_11) (x_53821 list_219))
	(diseqlist_219 nil_249 (cons_219 x_53820 x_53821))))
(assert (forall ((x_53822 Heap_11) (x_53823 list_219))
	(diseqlist_219 (cons_219 x_53822 x_53823) nil_249)))
(assert (forall ((x_53824 Heap_11) (x_53825 list_219) (x_53826 Heap_11) (x_53827 list_219))
	(=> (diseqHeap_11 x_53824 x_53826) (diseqlist_219 (cons_219 x_53824 x_53825) (cons_219 x_53826 x_53827)))))
(assert (forall ((x_53824 Heap_11) (x_53825 list_219) (x_53826 Heap_11) (x_53827 list_219))
	(=> (diseqlist_219 x_53825 x_53827) (diseqlist_219 (cons_219 x_53824 x_53825) (cons_219 x_53826 x_53827)))))
(declare-fun toHeap_16 (list_219 list_218) Bool)
(assert (forall ((x_53733 list_219) (y_2123 Int) (z_1891 list_218))
	(=> (toHeap_16 x_53733 z_1891) (toHeap_16 (cons_219 (Node_16 Nil_248 y_2123 Nil_248) x_53733) (cons_218 y_2123 z_1891)))))
(assert (toHeap_16 nil_249 nil_247))
(declare-fun insert_27 (list_218 Int list_218) Bool)
(assert (forall ((z_1892 Int) (xs_602 list_218) (x_53718 Int))
	(=> (le_312 x_53718 z_1892) (insert_27 (cons_218 x_53718 (cons_218 z_1892 xs_602)) x_53718 (cons_218 z_1892 xs_602)))))
(assert (forall ((x_53737 list_218) (z_1892 Int) (xs_602 list_218) (x_53718 Int))
	(=> (and (gt_315 x_53718 z_1892) (insert_27 x_53737 x_53718 xs_602)) (insert_27 (cons_218 z_1892 x_53737) x_53718 (cons_218 z_1892 xs_602)))))
(assert (forall ((x_53718 Int))
	(insert_27 (cons_218 x_53718 nil_247) x_53718 nil_247)))
(declare-fun isort_27 (list_218 list_218) Bool)
(assert (forall ((x_53739 list_218) (x_53740 list_218) (y_2125 Int) (xs_603 list_218))
	(=> (and (isort_27 x_53740 xs_603) (insert_27 x_53739 y_2125 x_53740)) (isort_27 x_53739 (cons_218 y_2125 xs_603)))))
(assert (isort_27 nil_247 nil_247))
(declare-fun hmerge_11 (Heap_11 Heap_11 Heap_11) Bool)
(assert (forall ((x_53743 Heap_11))
	(hmerge_11 x_53743 Nil_248 x_53743)))
(assert (forall ((z_1893 Heap_11) (x_53721 Int) (x_53722 Heap_11))
	(hmerge_11 (Node_16 z_1893 x_53721 x_53722) (Node_16 z_1893 x_53721 x_53722) Nil_248)))
(assert (forall ((x_53746 Heap_11) (x_53723 Heap_11) (x_53724 Int) (x_53725 Heap_11) (z_1893 Heap_11) (x_53721 Int) (x_53722 Heap_11))
	(=> (and (le_312 x_53721 x_53724) (hmerge_11 x_53746 x_53722 (Node_16 x_53723 x_53724 x_53725))) (hmerge_11 (Node_16 x_53746 x_53721 z_1893) (Node_16 z_1893 x_53721 x_53722) (Node_16 x_53723 x_53724 x_53725)))))
(assert (forall ((x_53748 Heap_11) (x_53723 Heap_11) (x_53724 Int) (x_53725 Heap_11) (z_1893 Heap_11) (x_53721 Int) (x_53722 Heap_11))
	(=> (and (gt_315 x_53721 x_53724) (hmerge_11 x_53748 (Node_16 z_1893 x_53721 x_53722) x_53725)) (hmerge_11 (Node_16 x_53748 x_53724 x_53723) (Node_16 z_1893 x_53721 x_53722) (Node_16 x_53723 x_53724 x_53725)))))
(declare-fun hpairwise_5 (list_219 list_219) Bool)
(assert (forall ((x_53750 Heap_11) (x_53751 list_219) (q_127 Heap_11) (qs_5 list_219) (p_396 Heap_11))
	(=> (and (hmerge_11 x_53750 p_396 q_127) (hpairwise_5 x_53751 qs_5)) (hpairwise_5 (cons_219 x_53750 x_53751) (cons_219 p_396 (cons_219 q_127 qs_5))))))
(assert (forall ((p_396 Heap_11))
	(hpairwise_5 (cons_219 p_396 nil_249) (cons_219 p_396 nil_249))))
(assert (hpairwise_5 nil_249 nil_249))
(declare-fun hmerging_5 (Heap_11 list_219) Bool)
(assert (forall ((x_53754 Heap_11) (x_53755 list_219) (z_1894 Heap_11) (x_53728 list_219) (p_397 Heap_11))
	(=> (and (hpairwise_5 x_53755 (cons_219 p_397 (cons_219 z_1894 x_53728))) (hmerging_5 x_53754 x_53755)) (hmerging_5 x_53754 (cons_219 p_397 (cons_219 z_1894 x_53728))))))
(assert (forall ((p_397 Heap_11))
	(hmerging_5 p_397 (cons_219 p_397 nil_249))))
(assert (hmerging_5 Nil_248 nil_249))
(declare-fun toHeap_17 (Heap_11 list_218) Bool)
(assert (forall ((x_53759 Heap_11) (x_53760 list_219) (x_53729 list_218))
	(=> (and (toHeap_16 x_53760 x_53729) (hmerging_5 x_53759 x_53760)) (toHeap_17 x_53759 x_53729))))
(declare-fun toList_11 (list_218 Heap_11) Bool)
(assert (toList_11 nil_247 Nil_248))
(assert (forall ((x_53764 Heap_11) (x_53765 list_218) (p_398 Heap_11) (y_2129 Int) (q_128 Heap_11))
	(=> (and (hmerge_11 x_53764 p_398 q_128) (toList_11 x_53765 x_53764)) (toList_11 (cons_218 y_2129 x_53765) (Node_16 p_398 y_2129 q_128)))))
(declare-fun hsort_11 (list_218 list_218) Bool)
(assert (forall ((x_53766 list_218) (x_53767 Heap_11) (x_53731 list_218))
	(=> (and (toHeap_17 x_53767 x_53731) (toList_11 x_53766 x_53767)) (hsort_11 x_53766 x_53731))))
(assert (forall ((x_53769 list_218) (x_53770 list_218) (xs_604 list_218))
	(=> (and true (diseqlist_218 x_53769 x_53770) (hsort_11 x_53769 xs_604) (isort_27 x_53770 xs_604)) false)))
(check-sat)
